NAME: line_31_22
TYPE: TSP
COMMENT: srandom_31_22
DIMENSION: 31
EDGE_WEIGHT_TYPE: EUC_2D
NODE_COORD_SECTION
1 2678 1612
2 553 4938
3 4488 30
4 4676 3927
5 4093 2586
6 1880 1924
7 3413 2088
8 2385 1256
9 4364 3344
10 2395 4594
11 2679 4702
12 813 4211
13 4674 2290
14 3365 120
15 1189 2294
16 1981 4116
17 2580 29
18 1240 4118
19 1267 3763
20 4645 2875
21 4038 2175
22 3029 4761
23 4691 2167
24 4707 1372
25 901 3089
26 1525 2738
27 3580 2850
28 898 3131
29 3904 143
30 2221 2093
31 788 1405
